jobs  (incl. supersource/sink ):	102
RESOURCES
- renewable                 : 2 R
- nonrenewable              : 4 N
- doubly constrained        : 0 D
************************************************************************
PRECEDENCE RELATIONS:
jobnr.    #modes  #successors   successors
1	1	6		2 3 4 6 7 10 
2	9	6		15 14 12 11 9 8 
3	9	7		20 19 16 13 12 11 9 
4	9	3		12 9 5 
5	9	6		22 21 20 18 15 11 
6	9	4		24 19 11 9 
7	9	7		27 23 22 21 20 17 16 
8	9	9		33 29 28 27 26 23 22 19 16 
9	9	7		30 28 27 25 21 18 17 
10	9	8		43 29 28 27 26 23 21 20 
11	9	7		31 30 28 27 25 23 17 
12	9	8		43 42 33 27 26 25 23 22 
13	9	4		33 25 22 18 
14	9	6		43 33 30 26 23 21 
15	9	8		43 42 38 35 33 30 25 24 
16	9	9		43 42 38 35 34 32 31 30 25 
17	9	7		43 42 39 33 32 29 26 
18	9	5		43 42 39 29 23 
19	9	4		39 35 30 21 
20	9	4		38 35 25 24 
21	9	7		42 41 38 37 34 32 31 
22	9	6		41 38 35 32 31 30 
23	9	6		41 38 37 35 34 32 
24	9	6		41 39 37 36 34 32 
25	9	6		51 45 41 39 37 36 
26	9	6		60 45 41 38 37 35 
27	9	6		51 48 47 45 37 36 
28	9	3		38 36 32 
29	9	7		51 50 49 46 45 38 36 
30	9	5		51 48 45 37 36 
31	9	6		51 50 49 48 45 36 
32	9	8		56 52 51 50 49 47 45 44 
33	9	8		57 56 55 51 48 46 45 40 
34	9	7		60 53 52 49 48 45 44 
35	9	8		62 56 54 53 52 51 50 44 
36	9	5		62 60 56 44 40 
37	9	7		58 57 55 53 50 49 46 
38	9	4		57 55 48 40 
39	9	6		67 60 55 54 50 48 
40	9	8		69 67 61 59 58 54 53 52 
41	9	7		69 62 58 57 56 54 53 
42	9	6		67 61 58 55 54 50 
43	9	6		70 64 63 57 55 48 
44	9	7		64 63 61 59 58 57 55 
45	9	7		69 68 66 63 61 58 54 
46	9	7		68 67 64 63 62 61 59 
47	9	4		61 60 54 53 
48	9	5		69 68 62 61 58 
49	9	5		76 69 66 63 54 
50	9	6		77 75 69 66 63 59 
51	9	5		85 68 67 61 59 
52	9	10		81 79 78 77 76 75 73 71 68 66 
53	9	6		81 77 71 66 64 63 
54	9	9		85 83 81 77 74 72 71 70 64 
55	9	11		90 85 84 81 79 78 77 73 71 69 68 
56	9	9		81 79 77 76 75 74 73 72 65 
57	9	8		81 79 78 77 71 68 67 66 
58	9	7		85 81 79 76 74 73 65 
59	9	7		82 81 76 72 71 70 65 
60	9	7		85 82 77 72 71 70 65 
61	9	10		84 83 82 81 80 79 77 76 74 71 
62	9	6		90 83 79 78 77 66 
63	9	6		91 90 87 85 80 73 
64	9	6		84 82 80 79 78 75 
65	9	9		96 94 91 90 89 84 83 80 78 
66	9	5		87 85 84 82 72 
67	9	5		96 95 91 82 75 
68	9	3		96 89 72 
69	9	6		101 94 91 89 83 80 
70	9	6		101 94 93 91 86 79 
71	9	7		101 96 95 94 89 88 87 
72	9	5		101 94 93 91 80 
73	9	5		101 94 86 83 82 
74	9	7		101 99 96 94 90 89 88 
75	9	5		101 94 90 88 86 
76	9	5		101 91 89 87 86 
77	9	3		94 88 87 
78	9	6		101 100 99 95 93 92 
79	9	5		100 99 96 95 89 
80	9	4		100 95 88 86 
81	9	5		101 99 98 94 92 
82	9	3		100 99 89 
83	9	3		99 93 88 
84	9	4		100 99 98 97 
85	9	4		101 99 98 97 
86	9	3		99 98 92 
87	9	3		100 99 93 
88	9	2		98 92 
89	9	2		98 92 
90	9	2		97 93 
91	9	2		99 97 
92	9	1		97 
93	9	1		98 
94	9	1		100 
95	9	1		97 
96	9	1		97 
97	9	1		102 
98	9	1		102 
99	9	1		102 
100	9	1		102 
101	9	1		102 
102	1	0		
************************************************************************
REQUESTS/DURATIONS
jobnr.	mode	dur	R1	R2	N1	N2	N3	N4	
------------------------------------------------------------------------
1	1	0	0	0	0	0	0	0	
2	1	2	3	3	3	26	11	27	
	2	5	3	2	3	22	10	26	
	3	10	3	2	3	20	9	25	
	4	11	3	2	3	16	8	24	
	5	16	3	1	3	16	8	24	
	6	17	3	1	3	11	7	24	
	7	21	3	1	3	9	7	23	
	8	23	3	1	3	5	7	23	
	9	28	3	1	3	3	6	22	
3	1	2	4	4	26	9	11	9	
	2	6	4	3	24	7	10	8	
	3	12	4	3	24	7	10	7	
	4	13	3	3	21	5	10	6	
	5	14	3	3	20	5	9	6	
	6	20	2	3	19	5	9	4	
	7	23	1	3	17	3	8	4	
	8	28	1	3	17	2	8	3	
	9	29	1	3	16	2	8	1	
4	1	5	4	4	30	15	26	26	
	2	6	4	4	28	15	25	23	
	3	8	4	4	28	14	23	23	
	4	15	3	3	27	13	22	21	
	5	16	3	2	25	12	20	20	
	6	17	2	2	24	11	19	19	
	7	19	1	2	24	11	18	18	
	8	28	1	1	23	10	17	16	
	9	29	1	1	22	9	15	15	
5	1	4	4	5	24	4	23	3	
	2	12	3	4	21	4	21	3	
	3	13	3	4	20	4	19	3	
	4	17	3	4	19	3	18	3	
	5	20	3	4	19	3	17	3	
	6	21	2	4	17	2	14	2	
	7	25	2	4	16	2	12	2	
	8	26	2	4	15	1	12	2	
	9	29	2	4	14	1	9	2	
6	1	5	5	3	28	29	23	21	
	2	6	4	3	24	28	23	21	
	3	10	4	3	20	27	23	20	
	4	13	4	3	18	25	22	20	
	5	17	4	2	15	23	22	20	
	6	22	4	2	13	23	21	19	
	7	23	4	2	11	21	21	18	
	8	24	4	1	6	20	20	18	
	9	27	4	1	4	18	20	18	
7	1	1	2	4	8	9	25	10	
	2	2	1	3	6	8	24	9	
	3	5	1	3	6	7	21	8	
	4	10	1	3	5	7	15	8	
	5	11	1	2	5	6	12	7	
	6	13	1	2	4	6	11	4	
	7	16	1	2	3	5	9	3	
	8	24	1	2	3	4	6	3	
	9	29	1	2	2	3	2	1	
8	1	2	2	5	24	6	24	17	
	2	3	2	5	21	5	22	14	
	3	16	2	5	21	5	21	13	
	4	17	2	5	18	5	20	10	
	5	23	2	5	15	4	19	9	
	6	24	2	5	10	4	18	8	
	7	26	2	5	6	4	16	7	
	8	29	2	5	3	3	15	5	
	9	30	2	5	2	3	14	2	
9	1	4	5	5	8	18	1	15	
	2	5	4	4	7	18	1	13	
	3	6	3	4	7	17	1	12	
	4	7	3	4	7	16	1	11	
	5	8	3	3	7	15	1	9	
	6	9	2	3	7	14	1	8	
	7	10	2	3	7	13	1	6	
	8	13	1	3	7	12	1	6	
	9	16	1	3	7	11	1	5	
10	1	1	2	4	28	25	19	14	
	2	7	2	4	24	23	17	12	
	3	14	2	4	22	22	17	11	
	4	16	2	3	18	22	17	11	
	5	21	2	2	15	21	16	10	
	6	24	2	2	14	20	15	9	
	7	25	2	1	8	20	15	9	
	8	28	2	1	7	19	13	8	
	9	30	2	1	3	18	13	7	
11	1	1	2	3	9	19	12	11	
	2	2	1	3	8	19	11	10	
	3	14	1	3	7	16	10	10	
	4	17	1	3	6	13	10	9	
	5	19	1	3	6	13	9	9	
	6	20	1	3	6	11	9	9	
	7	23	1	3	4	8	8	8	
	8	26	1	3	3	7	8	7	
	9	27	1	3	3	5	7	7	
12	1	5	4	2	16	6	8	26	
	2	8	4	2	15	5	6	21	
	3	9	3	2	15	5	5	21	
	4	12	3	2	14	5	4	15	
	5	14	3	2	14	5	4	14	
	6	20	2	2	13	5	3	11	
	7	22	2	2	13	5	3	7	
	8	23	1	2	12	5	1	6	
	9	26	1	2	12	5	1	4	
13	1	1	2	4	24	26	26	24	
	2	6	2	4	22	25	25	21	
	3	18	2	4	20	25	25	20	
	4	19	2	4	17	24	25	18	
	5	25	2	4	15	24	25	14	
	6	26	2	3	12	24	25	14	
	7	28	2	3	9	23	25	10	
	8	29	2	3	6	23	25	10	
	9	30	2	3	4	23	25	6	
14	1	1	3	4	14	24	22	27	
	2	2	2	3	14	22	20	26	
	3	5	2	3	12	20	17	24	
	4	6	2	3	11	19	14	24	
	5	9	2	2	11	18	13	20	
	6	10	1	2	11	14	11	20	
	7	11	1	2	9	13	9	18	
	8	13	1	2	8	9	4	16	
	9	15	1	2	8	8	2	15	
15	1	1	4	1	22	22	16	19	
	2	2	4	1	22	21	15	18	
	3	7	4	1	21	19	14	17	
	4	8	4	1	20	19	14	17	
	5	18	3	1	20	16	13	16	
	6	19	3	1	19	14	11	14	
	7	20	2	1	18	14	11	14	
	8	21	2	1	18	10	9	13	
	9	24	2	1	17	9	9	12	
16	1	9	3	4	4	23	26	26	
	2	10	3	3	3	18	26	26	
	3	11	3	3	3	17	26	26	
	4	12	3	3	3	14	26	26	
	5	13	2	2	3	13	25	26	
	6	15	2	2	2	11	25	25	
	7	21	2	2	2	7	25	25	
	8	24	2	2	2	6	24	25	
	9	25	2	2	2	5	24	25	
17	1	9	5	2	26	24	13	24	
	2	12	4	1	21	23	12	22	
	3	13	3	1	20	23	12	21	
	4	14	3	1	19	22	11	20	
	5	15	3	1	14	22	10	18	
	6	17	2	1	12	22	10	18	
	7	24	2	1	9	22	9	15	
	8	26	1	1	8	21	9	15	
	9	29	1	1	5	21	9	13	
18	1	4	2	3	13	13	23	20	
	2	7	2	3	12	12	22	19	
	3	8	2	3	11	12	20	19	
	4	12	2	3	11	11	18	19	
	5	13	2	3	9	11	16	18	
	6	14	2	2	8	10	13	18	
	7	17	2	2	7	10	10	18	
	8	20	2	2	6	9	9	18	
	9	23	2	2	4	9	7	18	
19	1	1	3	4	16	7	26	29	
	2	7	3	3	16	6	24	26	
	3	8	3	3	16	5	23	26	
	4	9	3	3	16	4	22	24	
	5	11	3	3	16	4	19	21	
	6	15	3	3	15	3	17	18	
	7	16	3	3	15	2	14	16	
	8	20	3	3	15	1	14	14	
	9	27	3	3	15	1	12	14	
20	1	5	2	2	11	25	30	20	
	2	8	1	2	9	24	27	18	
	3	9	1	2	8	24	25	15	
	4	15	1	2	7	24	22	13	
	5	23	1	2	7	23	19	11	
	6	24	1	2	5	22	16	10	
	7	25	1	2	4	22	16	7	
	8	26	1	2	4	21	13	5	
	9	27	1	2	2	21	10	3	
21	1	1	3	4	23	24	24	29	
	2	3	2	4	21	22	22	26	
	3	5	2	4	21	21	20	25	
	4	9	2	4	21	19	19	21	
	5	10	2	4	19	18	16	20	
	6	13	2	4	19	18	16	18	
	7	20	2	4	19	15	15	16	
	8	25	2	4	18	14	12	15	
	9	28	2	4	17	13	12	12	
22	1	1	1	4	16	25	27	16	
	2	7	1	4	16	24	26	15	
	3	15	1	4	16	23	25	14	
	4	16	1	4	16	23	24	14	
	5	18	1	4	16	22	24	13	
	6	19	1	4	15	21	23	13	
	7	20	1	4	15	20	23	12	
	8	21	1	4	15	18	23	12	
	9	23	1	4	15	18	22	11	
23	1	5	2	3	27	17	19	22	
	2	7	2	2	26	15	18	21	
	3	8	2	2	24	15	18	18	
	4	10	2	2	24	14	17	16	
	5	14	2	1	21	14	14	15	
	6	21	2	1	20	13	14	14	
	7	23	2	1	19	13	13	11	
	8	25	2	1	19	12	12	9	
	9	28	2	1	18	12	10	9	
24	1	3	2	3	27	7	11	8	
	2	6	2	3	25	6	10	7	
	3	11	2	3	22	5	10	7	
	4	12	2	3	22	4	9	6	
	5	21	2	3	20	4	9	6	
	6	22	2	2	16	3	9	6	
	7	25	2	2	14	3	8	5	
	8	27	2	2	14	3	8	4	
	9	28	2	2	11	2	8	5	
25	1	2	3	2	19	11	18	19	
	2	3	3	2	19	9	17	19	
	3	13	3	2	18	9	17	18	
	4	14	2	2	18	8	15	18	
	5	15	2	2	16	8	14	18	
	6	16	2	2	16	8	12	17	
	7	17	1	2	16	7	10	17	
	8	19	1	2	14	7	9	16	
	9	30	1	2	14	6	8	16	
26	1	10	5	5	26	24	29	22	
	2	12	5	4	25	23	29	21	
	3	13	5	4	25	23	29	19	
	4	14	5	4	25	21	29	17	
	5	19	5	4	25	21	29	16	
	6	22	5	4	24	21	29	13	
	7	25	5	4	24	19	29	12	
	8	26	5	4	24	18	29	9	
	9	30	5	4	24	18	29	8	
27	1	2	4	2	25	18	9	30	
	2	6	3	2	21	18	9	29	
	3	10	3	2	19	17	9	27	
	4	15	2	2	17	16	8	26	
	5	19	2	2	14	16	8	25	
	6	20	2	2	10	15	8	24	
	7	21	1	2	8	14	7	23	
	8	22	1	2	6	14	7	22	
	9	30	1	2	4	13	7	22	
28	1	6	3	4	26	29	24	14	
	2	7	2	3	22	26	23	12	
	3	9	2	3	21	24	23	11	
	4	10	2	3	18	24	22	9	
	5	12	1	3	18	20	22	8	
	6	20	1	3	16	19	21	8	
	7	23	1	3	14	19	21	6	
	8	27	1	3	11	17	20	6	
	9	30	1	3	10	15	20	4	
29	1	1	3	3	22	27	24	30	
	2	8	3	3	21	24	22	29	
	3	14	3	3	20	22	21	29	
	4	15	3	3	19	22	18	29	
	5	20	3	3	19	20	17	28	
	6	21	2	2	18	16	16	28	
	7	25	2	2	18	15	14	28	
	8	26	2	2	16	12	10	28	
	9	29	2	2	16	12	9	28	
30	1	3	3	4	27	27	15	27	
	2	4	3	4	26	27	15	24	
	3	14	3	4	24	27	15	23	
	4	15	3	3	23	27	15	20	
	5	16	3	3	22	27	15	18	
	6	19	2	2	21	27	14	16	
	7	23	2	2	20	27	14	13	
	8	26	2	1	20	27	14	11	
	9	27	2	1	19	27	14	8	
31	1	6	4	5	21	20	29	19	
	2	10	4	4	20	19	28	19	
	3	11	4	4	17	17	27	16	
	4	13	3	4	15	16	27	15	
	5	19	3	4	12	15	26	14	
	6	20	2	3	10	15	26	12	
	7	28	2	3	8	14	25	11	
	8	29	1	3	7	12	25	7	
	9	30	1	3	6	12	25	6	
32	1	3	4	3	22	21	27	26	
	2	13	4	2	21	19	22	25	
	3	19	4	2	21	17	19	25	
	4	20	4	2	21	15	17	23	
	5	21	4	1	21	12	13	22	
	6	22	4	1	21	10	12	19	
	7	27	4	1	21	9	10	18	
	8	28	4	1	21	5	4	17	
	9	30	4	1	21	4	3	16	
33	1	7	2	1	25	27	21	16	
	2	8	2	1	23	24	19	15	
	3	9	2	1	22	21	18	15	
	4	10	2	1	21	20	18	15	
	5	14	2	1	19	17	16	14	
	6	17	2	1	18	15	15	14	
	7	18	2	1	17	15	12	13	
	8	23	2	1	16	11	12	13	
	9	24	2	1	16	10	10	13	
34	1	3	3	4	28	16	28	2	
	2	7	3	3	27	14	28	1	
	3	8	3	3	27	14	26	1	
	4	13	3	3	27	12	24	1	
	5	14	3	3	27	9	23	1	
	6	18	3	3	27	9	22	1	
	7	19	3	3	27	6	21	1	
	8	24	3	3	27	4	19	2	
	9	27	3	3	27	4	19	1	
35	1	4	5	3	12	12	25	30	
	2	5	4	3	11	10	25	29	
	3	7	4	3	11	10	25	28	
	4	10	4	3	10	10	24	29	
	5	11	3	3	10	8	24	28	
	6	15	3	2	10	8	23	28	
	7	18	3	2	10	8	23	27	
	8	21	3	2	9	7	22	27	
	9	28	3	2	9	6	22	27	
36	1	3	3	5	25	20	27	10	
	2	5	2	5	20	19	27	9	
	3	7	2	5	19	17	23	7	
	4	8	2	5	16	16	21	7	
	5	11	1	5	13	14	16	6	
	6	12	1	5	13	13	13	4	
	7	14	1	5	10	13	10	4	
	8	27	1	5	9	12	10	2	
	9	30	1	5	7	11	6	1	
37	1	7	3	4	23	14	24	26	
	2	14	3	4	20	13	23	26	
	3	15	3	4	19	12	21	26	
	4	16	2	4	17	10	18	26	
	5	19	2	4	16	10	16	26	
	6	20	2	3	14	9	13	26	
	7	25	1	3	11	8	13	26	
	8	26	1	3	9	7	10	26	
	9	27	1	3	9	5	9	26	
38	1	1	2	5	25	15	20	9	
	2	10	2	4	24	13	19	7	
	3	12	2	4	20	12	19	7	
	4	13	2	4	18	11	19	7	
	5	15	1	4	15	8	19	5	
	6	16	1	4	12	7	19	5	
	7	18	1	4	9	5	19	5	
	8	21	1	4	6	5	19	4	
	9	22	1	4	3	3	19	3	
39	1	5	4	4	7	18	8	27	
	2	6	3	4	6	17	7	25	
	3	11	3	4	5	16	6	22	
	4	12	3	4	5	15	5	19	
	5	16	3	4	5	14	4	16	
	6	19	3	4	4	14	4	14	
	7	25	3	4	4	12	4	13	
	8	26	3	4	3	12	3	10	
	9	29	3	4	3	10	2	8	
40	1	1	4	2	9	12	12	24	
	2	4	4	2	8	11	12	23	
	3	5	4	2	6	11	11	21	
	4	6	4	2	6	10	9	18	
	5	9	3	2	5	10	9	17	
	6	10	3	2	4	10	8	16	
	7	13	3	2	4	9	7	15	
	8	24	2	2	2	9	6	14	
	9	25	2	2	2	9	6	11	
41	1	9	2	2	27	28	25	19	
	2	12	2	1	25	27	24	19	
	3	13	2	1	25	25	24	19	
	4	16	2	1	24	25	24	18	
	5	17	1	1	22	22	24	18	
	6	18	1	1	21	21	23	18	
	7	20	1	1	21	20	23	18	
	8	21	1	1	20	20	23	17	
	9	24	1	1	18	19	23	17	
42	1	4	3	4	26	22	28	9	
	2	7	2	4	25	20	26	9	
	3	8	2	4	22	16	26	9	
	4	10	2	3	17	15	25	9	
	5	11	2	3	15	14	25	9	
	6	13	1	3	11	10	24	9	
	7	14	1	3	8	8	24	9	
	8	16	1	2	4	8	23	9	
	9	23	1	2	2	5	22	9	
43	1	2	5	5	20	20	15	27	
	2	3	5	4	19	19	14	22	
	3	4	5	4	18	19	13	18	
	4	5	5	3	17	19	13	17	
	5	10	5	3	15	18	11	14	
	6	13	5	3	14	18	11	12	
	7	16	5	2	14	18	9	9	
	8	19	5	2	13	18	8	7	
	9	26	5	2	11	18	8	4	
44	1	5	5	4	15	18	6	24	
	2	8	4	3	14	18	6	23	
	3	9	4	3	14	17	5	22	
	4	10	4	3	12	17	5	20	
	5	11	4	2	12	16	3	18	
	6	16	3	2	10	16	3	17	
	7	20	3	1	10	15	2	17	
	8	22	3	1	8	15	1	15	
	9	29	3	1	8	14	1	14	
45	1	1	2	5	22	25	21	11	
	2	3	2	4	19	23	19	11	
	3	8	2	4	19	23	19	10	
	4	10	2	4	15	22	19	10	
	5	16	2	4	13	21	17	10	
	6	23	2	4	12	21	17	9	
	7	26	2	4	8	21	17	8	
	8	27	2	4	5	20	15	8	
	9	28	2	4	4	19	15	8	
46	1	7	5	2	11	18	28	25	
	2	9	5	1	11	18	26	25	
	3	10	5	1	11	16	25	25	
	4	11	5	1	11	16	24	25	
	5	17	5	1	10	14	22	24	
	6	18	5	1	10	14	20	24	
	7	23	5	1	10	13	17	23	
	8	24	5	1	10	11	16	23	
	9	25	5	1	10	11	14	23	
47	1	3	2	2	25	24	10	28	
	2	5	2	2	24	23	9	26	
	3	7	2	2	23	23	8	25	
	4	20	2	2	23	21	8	23	
	5	21	2	2	22	20	7	21	
	6	23	2	2	21	19	6	20	
	7	26	2	2	21	18	5	18	
	8	27	2	2	19	18	4	17	
	9	30	2	2	19	17	4	16	
48	1	1	2	2	21	12	26	14	
	2	2	2	2	19	10	22	14	
	3	3	2	2	17	9	21	14	
	4	4	2	2	16	8	20	14	
	5	5	2	2	12	7	17	14	
	6	9	2	2	10	7	15	14	
	7	20	2	2	9	5	12	14	
	8	27	2	2	7	5	11	14	
	9	28	2	2	6	4	9	14	
49	1	16	2	2	7	26	22	18	
	2	20	2	2	7	24	21	18	
	3	21	2	2	7	22	21	18	
	4	22	2	2	6	21	21	18	
	5	24	2	2	6	20	21	18	
	6	25	2	1	6	20	20	18	
	7	27	2	1	5	18	20	18	
	8	28	2	1	5	17	20	18	
	9	30	2	1	5	17	20	17	
50	1	2	5	4	14	12	24	22	
	2	3	4	4	14	12	24	20	
	3	19	4	4	12	12	24	19	
	4	20	4	3	11	12	23	19	
	5	21	3	3	10	12	22	17	
	6	24	3	2	9	12	22	17	
	7	26	3	2	9	12	21	16	
	8	27	3	1	8	12	21	15	
	9	30	3	1	7	12	21	13	
51	1	9	4	5	13	5	16	18	
	2	11	4	4	10	4	15	17	
	3	16	4	4	9	4	15	17	
	4	18	4	4	9	4	14	15	
	5	19	3	3	8	4	14	15	
	6	22	3	3	7	4	14	13	
	7	23	2	3	6	4	14	12	
	8	24	2	3	5	4	13	12	
	9	28	2	3	4	4	13	10	
52	1	4	4	2	4	20	22	28	
	2	5	3	1	3	20	19	26	
	3	7	3	1	3	18	18	26	
	4	9	3	1	3	15	18	25	
	5	12	2	1	3	13	16	24	
	6	15	2	1	2	10	15	22	
	7	17	2	1	2	8	13	21	
	8	23	2	1	2	4	12	20	
	9	28	2	1	2	4	12	19	
53	1	1	3	5	22	11	30	25	
	2	5	3	4	20	11	27	24	
	3	6	3	3	17	9	27	24	
	4	7	3	3	16	7	26	22	
	5	10	3	3	14	6	23	22	
	6	19	3	2	11	6	23	21	
	7	25	3	2	8	4	20	20	
	8	26	3	1	7	3	20	19	
	9	29	3	1	3	1	18	19	
54	1	1	4	5	28	26	13	27	
	2	2	3	4	26	22	13	25	
	3	3	3	4	22	22	12	21	
	4	6	3	4	18	19	10	19	
	5	14	2	3	15	17	8	18	
	6	23	2	3	12	14	8	17	
	7	26	2	2	10	11	6	15	
	8	29	2	2	9	9	6	14	
	9	30	2	2	4	6	5	12	
55	1	2	3	3	30	19	23	10	
	2	3	3	3	28	19	22	9	
	3	4	3	3	26	18	17	8	
	4	5	3	3	26	17	17	7	
	5	7	3	2	25	16	15	7	
	6	11	3	2	23	15	12	6	
	7	16	3	2	22	14	8	6	
	8	17	3	1	21	12	6	5	
	9	30	3	1	20	12	4	5	
56	1	1	4	3	26	21	29	25	
	2	2	4	2	25	20	27	23	
	3	3	4	2	24	19	26	22	
	4	4	3	2	22	18	25	20	
	5	9	2	1	21	17	25	18	
	6	20	2	1	18	16	24	17	
	7	22	1	1	17	14	23	16	
	8	23	1	1	16	14	23	15	
	9	25	1	1	15	13	22	15	
57	1	2	4	4	16	15	29	22	
	2	5	3	3	16	12	29	21	
	3	13	3	3	14	11	29	18	
	4	14	3	3	11	11	29	14	
	5	18	3	2	9	10	29	14	
	6	19	3	2	7	7	29	11	
	7	21	3	2	4	6	29	8	
	8	22	3	2	2	5	29	6	
	9	25	3	2	1	5	29	4	
58	1	5	4	3	26	21	27	22	
	2	6	4	3	24	21	27	21	
	3	11	4	3	23	18	26	20	
	4	20	4	3	23	14	25	18	
	5	21	4	3	22	14	25	18	
	6	23	4	3	21	11	24	18	
	7	24	4	3	21	9	24	17	
	8	28	4	3	20	4	23	16	
	9	29	4	3	19	4	23	15	
59	1	1	5	3	28	7	22	9	
	2	2	4	2	26	6	21	9	
	3	13	4	2	23	6	20	9	
	4	16	3	2	23	6	19	9	
	5	17	3	2	21	5	18	9	
	6	21	2	2	19	5	16	9	
	7	22	2	2	17	4	14	9	
	8	23	1	2	16	3	13	9	
	9	30	1	2	15	3	12	9	
60	1	6	2	3	21	23	19	17	
	2	7	2	3	20	20	19	16	
	3	8	2	3	20	19	19	15	
	4	12	2	2	20	18	19	15	
	5	13	2	2	19	17	19	14	
	6	15	2	2	19	16	19	12	
	7	18	2	1	19	14	19	11	
	8	19	2	1	19	14	19	10	
	9	20	2	1	19	13	19	9	
61	1	1	3	3	29	25	14	20	
	2	6	3	3	25	25	13	19	
	3	8	3	3	22	25	12	19	
	4	12	3	3	19	24	11	19	
	5	19	3	3	16	24	11	18	
	6	20	3	3	13	23	9	18	
	7	25	3	3	10	23	9	17	
	8	27	3	3	7	22	8	17	
	9	30	3	3	5	22	7	17	
62	1	1	3	4	14	18	9	13	
	2	2	3	4	14	17	9	12	
	3	5	3	4	14	17	9	11	
	4	6	3	4	14	15	8	10	
	5	18	3	4	13	14	8	8	
	6	19	3	4	13	13	7	8	
	7	20	3	4	12	12	6	7	
	8	26	3	4	12	12	6	6	
	9	30	3	4	12	10	6	5	
63	1	1	2	3	26	19	23	8	
	2	11	1	3	23	19	22	7	
	3	12	1	3	20	17	22	6	
	4	19	1	3	16	17	21	6	
	5	22	1	3	15	16	20	5	
	6	23	1	3	13	14	20	5	
	7	24	1	3	7	13	20	4	
	8	25	1	3	6	12	18	4	
	9	27	1	3	3	12	18	3	
64	1	2	4	3	24	26	6	28	
	2	3	3	3	22	24	6	24	
	3	6	3	3	20	23	6	24	
	4	10	3	3	18	21	5	21	
	5	15	2	3	15	18	5	19	
	6	22	2	3	10	16	5	16	
	7	23	1	3	10	14	5	13	
	8	28	1	3	6	12	4	12	
	9	30	1	3	4	10	4	11	
65	1	3	4	1	20	28	15	23	
	2	8	3	1	20	26	13	22	
	3	9	3	1	17	25	11	22	
	4	16	2	1	15	24	11	22	
	5	18	2	1	13	23	10	22	
	6	23	2	1	8	22	8	21	
	7	27	1	1	5	21	6	21	
	8	28	1	1	3	20	5	21	
	9	29	1	1	3	18	3	21	
66	1	1	4	1	20	21	14	18	
	2	6	4	1	18	20	14	16	
	3	12	4	1	15	17	13	15	
	4	13	4	1	14	15	13	14	
	5	16	4	1	13	13	12	14	
	6	22	3	1	10	10	11	13	
	7	26	3	1	8	8	11	11	
	8	29	3	1	8	6	9	11	
	9	30	3	1	6	5	9	10	
67	1	16	3	5	20	22	12	25	
	2	17	3	4	20	22	11	25	
	3	18	3	3	18	18	11	25	
	4	19	3	3	17	17	11	25	
	5	21	3	3	17	15	10	25	
	6	22	3	2	17	12	10	25	
	7	23	3	2	16	10	10	25	
	8	25	3	1	15	5	10	25	
	9	26	3	1	14	3	10	25	
68	1	6	1	5	18	29	13	26	
	2	7	1	4	16	26	13	24	
	3	8	1	4	16	20	12	23	
	4	9	1	4	14	19	12	23	
	5	11	1	4	14	16	12	22	
	6	13	1	4	12	11	11	21	
	7	22	1	4	11	10	11	19	
	8	28	1	4	11	8	10	18	
	9	29	1	4	10	2	10	18	
69	1	1	3	4	20	14	27	11	
	2	3	2	3	19	13	24	11	
	3	8	2	3	19	13	22	11	
	4	11	2	3	17	13	21	11	
	5	18	2	2	15	12	20	11	
	6	19	2	2	15	12	18	11	
	7	23	2	2	14	12	16	11	
	8	28	2	2	12	12	14	11	
	9	29	2	2	11	12	11	11	
70	1	5	2	1	2	27	19	26	
	2	7	2	1	2	27	19	25	
	3	9	2	1	2	27	18	22	
	4	10	2	1	2	27	18	20	
	5	11	2	1	2	26	17	18	
	6	16	2	1	2	26	17	17	
	7	22	2	1	2	25	16	14	
	8	26	2	1	2	25	16	11	
	9	28	2	1	2	25	16	10	
71	1	1	5	4	29	21	3	18	
	2	12	4	3	27	19	3	17	
	3	14	4	3	25	18	3	17	
	4	15	4	2	22	16	2	16	
	5	16	4	2	19	12	2	15	
	6	17	4	2	19	10	2	15	
	7	20	4	2	15	9	1	14	
	8	24	4	1	14	6	1	14	
	9	27	4	1	12	6	1	14	
72	1	1	5	2	13	22	23	18	
	2	2	4	2	12	20	21	17	
	3	3	4	2	12	19	21	13	
	4	5	4	2	11	19	20	12	
	5	6	3	2	10	17	18	11	
	6	10	3	2	10	17	16	7	
	7	15	3	2	9	15	16	5	
	8	24	3	2	8	14	13	5	
	9	28	3	2	8	14	13	2	
73	1	1	1	3	12	22	26	8	
	2	2	1	3	10	22	26	7	
	3	3	1	3	10	21	22	7	
	4	13	1	2	9	21	19	7	
	5	15	1	2	8	20	16	7	
	6	16	1	2	6	19	14	7	
	7	20	1	2	6	18	11	7	
	8	22	1	1	5	18	5	7	
	9	23	1	1	4	17	2	7	
74	1	5	1	1	18	8	27	17	
	2	8	1	1	17	7	27	15	
	3	9	1	1	17	7	27	12	
	4	11	1	1	17	7	27	11	
	5	12	1	1	17	7	27	9	
	6	14	1	1	17	6	26	7	
	7	15	1	1	17	6	26	5	
	8	19	1	1	17	6	26	4	
	9	22	1	1	17	6	26	2	
75	1	2	4	4	29	29	14	11	
	2	6	4	4	29	24	12	10	
	3	7	4	4	28	24	10	9	
	4	18	4	3	28	21	10	7	
	5	21	4	3	26	18	9	6	
	6	27	3	2	26	15	7	5	
	7	28	3	1	25	13	6	3	
	8	29	3	1	24	10	5	3	
	9	30	3	1	24	8	4	1	
76	1	1	2	4	16	22	27	20	
	2	4	2	4	16	22	23	20	
	3	5	2	4	14	21	20	16	
	4	13	2	4	12	21	16	13	
	5	14	2	4	11	20	13	11	
	6	15	1	4	10	20	11	10	
	7	23	1	4	7	20	7	7	
	8	28	1	4	6	19	4	5	
	9	30	1	4	5	19	3	1	
77	1	1	3	3	14	19	27	23	
	2	4	2	3	13	19	26	23	
	3	11	2	3	13	18	24	23	
	4	14	2	3	12	16	23	22	
	5	15	2	3	12	15	23	22	
	6	24	2	3	12	15	22	21	
	7	25	2	3	11	14	20	20	
	8	29	2	3	11	13	20	20	
	9	30	2	3	10	12	19	20	
78	1	4	1	4	24	27	28	21	
	2	5	1	3	22	23	28	20	
	3	7	1	3	21	22	28	19	
	4	8	1	3	21	17	28	19	
	5	9	1	3	20	14	27	19	
	6	10	1	3	18	11	27	18	
	7	18	1	3	17	10	26	17	
	8	19	1	3	16	8	26	17	
	9	30	1	3	14	5	26	17	
79	1	3	4	3	28	28	15	25	
	2	4	4	3	26	28	15	25	
	3	5	4	3	24	28	14	23	
	4	13	4	3	23	28	12	22	
	5	14	4	3	21	28	11	22	
	6	18	4	3	21	28	11	19	
	7	27	4	3	19	28	10	18	
	8	29	4	3	19	28	9	18	
	9	30	4	3	17	28	8	17	
80	1	3	1	5	30	28	2	29	
	2	3	1	4	30	24	1	30	
	3	4	1	4	30	24	1	29	
	4	8	1	4	30	22	1	29	
	5	12	1	4	30	20	1	28	
	6	13	1	4	30	16	1	28	
	7	14	1	4	30	15	1	27	
	8	22	1	4	30	13	1	27	
	9	23	1	4	30	11	1	27	
81	1	1	3	3	22	14	4	27	
	2	2	2	3	22	12	4	26	
	3	3	2	3	21	12	4	26	
	4	15	2	3	20	12	4	26	
	5	20	1	3	20	10	4	26	
	6	24	1	2	19	10	4	26	
	7	27	1	2	19	10	4	25	
	8	28	1	2	19	9	4	26	
	9	30	1	2	18	8	4	26	
82	1	4	4	4	10	30	8	23	
	2	10	3	4	9	29	7	22	
	3	18	3	4	9	29	7	20	
	4	19	3	4	8	29	7	20	
	5	21	3	4	7	28	6	19	
	6	23	2	4	5	28	6	17	
	7	24	2	4	4	28	5	16	
	8	25	2	4	4	27	5	14	
	9	29	2	4	2	27	5	12	
83	1	2	3	4	27	17	29	20	
	2	4	3	4	26	17	27	19	
	3	8	3	4	26	17	27	17	
	4	9	3	4	26	17	26	16	
	5	10	3	3	26	16	24	16	
	6	23	2	3	25	16	23	13	
	7	24	2	3	25	15	22	13	
	8	28	2	3	25	15	22	11	
	9	29	2	3	25	15	20	11	
84	1	1	4	3	15	25	21	10	
	2	5	4	3	15	23	21	9	
	3	15	4	3	14	21	20	8	
	4	19	4	3	14	19	19	8	
	5	20	4	2	13	17	17	6	
	6	24	3	2	13	16	17	6	
	7	25	3	2	12	13	16	6	
	8	27	3	2	11	11	15	4	
	9	28	3	2	11	9	13	4	
85	1	6	4	3	28	16	14	26	
	2	9	4	2	26	15	13	25	
	3	10	3	2	24	14	13	25	
	4	13	3	2	24	12	12	24	
	5	16	2	2	23	12	12	21	
	6	17	2	1	21	11	11	20	
	7	18	1	1	20	11	11	20	
	8	20	1	1	20	10	9	18	
	9	27	1	1	19	9	9	17	
86	1	1	4	3	26	17	24	12	
	2	5	4	3	25	16	21	12	
	3	6	4	3	21	14	18	11	
	4	9	3	3	16	14	15	10	
	5	14	2	3	15	11	14	9	
	6	17	2	3	11	11	12	8	
	7	21	2	3	10	10	9	7	
	8	26	1	3	8	7	6	7	
	9	30	1	3	3	7	3	6	
87	1	2	3	2	21	19	28	20	
	2	4	3	2	20	17	28	18	
	3	6	3	2	16	15	28	17	
	4	8	3	2	15	13	28	17	
	5	12	3	2	10	11	28	16	
	6	20	2	2	8	11	28	14	
	7	25	2	2	6	9	28	13	
	8	26	2	2	3	5	28	13	
	9	29	2	2	1	4	28	12	
88	1	2	1	2	5	25	26	21	
	2	10	1	2	5	24	26	19	
	3	14	1	2	4	23	26	17	
	4	15	1	2	4	22	25	16	
	5	16	1	2	3	22	25	15	
	6	19	1	1	3	22	25	12	
	7	21	1	1	2	21	25	11	
	8	28	1	1	1	21	24	11	
	9	30	1	1	1	20	24	8	
89	1	1	1	5	27	25	17	29	
	2	2	1	4	21	22	17	23	
	3	4	1	4	21	21	17	22	
	4	5	1	3	15	18	17	20	
	5	10	1	3	12	15	16	15	
	6	22	1	3	11	12	16	15	
	7	26	1	2	6	9	15	12	
	8	28	1	2	4	7	15	8	
	9	29	1	2	2	4	15	6	
90	1	1	3	1	17	23	23	15	
	2	3	2	1	16	20	21	13	
	3	12	2	1	13	16	19	13	
	4	13	2	1	12	13	17	9	
	5	14	1	1	11	12	14	8	
	6	15	1	1	9	9	10	8	
	7	27	1	1	6	6	9	6	
	8	28	1	1	4	4	5	4	
	9	30	1	1	3	1	3	2	
91	1	4	3	4	16	11	7	25	
	2	5	3	3	13	10	6	23	
	3	8	3	3	11	9	6	22	
	4	10	3	3	10	9	6	20	
	5	11	3	2	9	7	6	18	
	6	12	3	2	6	7	6	17	
	7	13	3	2	6	6	6	15	
	8	18	3	2	4	6	6	12	
	9	30	3	2	2	5	6	11	
92	1	3	4	3	14	19	25	28	
	2	13	4	2	13	18	25	24	
	3	15	4	2	12	18	23	21	
	4	16	4	2	11	18	22	19	
	5	17	4	2	11	18	21	16	
	6	18	4	2	10	18	20	15	
	7	24	4	2	10	18	19	12	
	8	25	4	2	9	18	19	10	
	9	26	4	2	9	18	18	6	
93	1	1	2	2	25	30	12	15	
	2	8	2	2	24	26	12	13	
	3	13	2	2	24	25	12	13	
	4	14	2	2	24	24	12	12	
	5	19	2	2	23	21	12	9	
	6	20	2	1	23	18	12	9	
	7	21	2	1	23	17	12	7	
	8	22	2	1	22	15	12	7	
	9	26	2	1	22	13	12	6	
94	1	1	5	3	27	12	22	26	
	2	4	4	3	24	11	20	26	
	3	5	4	3	23	11	20	25	
	4	6	4	3	22	11	19	23	
	5	7	4	2	20	11	18	23	
	6	8	4	2	18	10	18	21	
	7	17	4	2	17	10	18	20	
	8	20	4	2	16	10	17	19	
	9	21	4	2	13	10	16	19	
95	1	6	2	5	11	27	29	6	
	2	9	1	5	9	21	27	5	
	3	16	1	5	8	21	24	5	
	4	23	1	5	7	16	22	4	
	5	25	1	5	6	16	21	4	
	6	26	1	5	5	11	21	3	
	7	27	1	5	4	8	18	2	
	8	28	1	5	4	5	17	2	
	9	29	1	5	3	5	15	2	
96	1	2	3	3	19	24	28	29	
	2	6	2	3	18	22	26	29	
	3	7	2	3	17	22	25	28	
	4	9	2	3	17	21	25	26	
	5	10	2	3	14	21	23	26	
	6	11	2	3	14	20	22	25	
	7	12	2	3	12	20	21	23	
	8	18	2	3	12	19	21	23	
	9	27	2	3	11	19	20	22	
97	1	7	5	3	24	26	17	28	
	2	8	5	3	24	22	17	23	
	3	9	5	3	24	20	16	23	
	4	12	5	3	24	18	16	21	
	5	14	5	3	24	15	16	16	
	6	18	5	3	24	13	15	14	
	7	20	5	3	24	11	15	12	
	8	24	5	3	24	9	14	9	
	9	30	5	3	24	9	14	8	
98	1	3	5	4	23	29	22	24	
	2	9	4	4	22	23	20	23	
	3	12	4	4	20	23	18	21	
	4	13	4	4	20	19	16	20	
	5	15	4	4	19	17	15	17	
	6	18	3	4	19	10	12	17	
	7	22	3	4	17	9	11	16	
	8	24	3	4	16	7	7	12	
	9	26	3	4	16	3	5	11	
99	1	1	5	2	22	21	10	26	
	2	6	4	2	22	21	10	23	
	3	15	4	2	18	20	10	23	
	4	16	4	2	16	20	10	18	
	5	17	3	2	13	19	10	18	
	6	18	3	1	11	18	9	15	
	7	24	3	1	8	18	9	12	
	8	25	3	1	7	18	9	9	
	9	29	3	1	2	17	9	6	
100	1	2	4	4	15	21	24	18	
	2	3	3	4	14	19	24	18	
	3	4	3	4	14	19	24	17	
	4	6	3	4	12	17	23	17	
	5	13	3	4	12	15	23	17	
	6	20	2	4	12	14	23	17	
	7	21	2	4	11	12	23	17	
	8	28	2	4	10	9	22	17	
	9	30	2	4	9	8	22	17	
101	1	10	3	3	30	24	21	18	
	2	11	3	2	26	22	20	17	
	3	13	3	2	24	22	19	17	
	4	14	3	2	21	22	19	17	
	5	15	2	2	19	20	18	16	
	6	19	2	1	16	20	18	16	
	7	20	1	1	15	20	17	15	
	8	26	1	1	11	19	16	15	
	9	30	1	1	10	18	16	15	
102	1	0	0	0	0	0	0	0	
************************************************************************

 RESOURCE AVAILABILITIES 
	R 1	R 2	N 1	N 2	N 3	N 4
	18	18	1254	1294	1410	1360

************************************************************************
